1 - 0
2 - 0
3 - 0
4 - 0
5 - 0
6 - 0
7 - 0
8 - 0
9 - 0
10 - 0
11 - 0
12 - 0
13 - 0
14 - 0
15 - 0
16 - 0
17 - 0
18 - 0
19 - 0
20 - 0
21 - 0
22 - 0
23 - 0
24 - 0
25 - 0
26 - 0
27 - 718
28 - 12408
29 - 51260
30 - 28137
31 - 7829
32 - 23
33 - 0
34 - 0
35 - 0
36 - 0
37 - 0
38 - 0
39 - 0
40 - 0
41 - 0
42 - 0
43 - 0
44 - 0
45 - 0
46 - 0
47 - 0
48 - 0
49 - 0
50 - 0

0.1 - 7992
0.2 - 9668
0.3 - 9920
0.4 - 10119
0.5 - 10167
0.6 - 10256
0.7 - 10417
0.8 - 10350
0.9 - 10572
1 - 10914
